(declare-fun cmp1.i_48_34 () (_ BitVec 1))
(declare-fun or.cond_48_36 () (_ BitVec 1))
(declare-fun cmp.i_48_32 () (_ BitVec 1))
(declare-fun cond14.i_48_25 () (_ BitVec 64))
(declare-fun cond.i_48_20 () (_ BitVec 64))
(declare-fun or29.i_48_29 () (_ BitVec 64))
(declare-fun i27.i_48_28 () (_ BitVec 64))
(declare-fun cond35.i_48_30 () (_ BitVec 64))
(declare-fun i23.i_48_15 () (_ BitVec 64))
(declare-fun i24.i_48_16 () (_ BitVec 64))
(declare-fun dst_reg_48_9 () (_ BitVec 64))
(declare-fun i26.i_48_26 () (_ BitVec 64))
(declare-fun cond23.i_48_27 () (_ BitVec 64))
(declare-fun dst_reg_48_8 () (_ BitVec 64))
(declare-fun or8.i_48_24 () (_ BitVec 64))
(declare-fun i25.i_48_21 () (_ BitVec 64))
(declare-fun and7.i_48_23 () (_ BitVec 64))
(declare-fun dst_reg_48_7 () (_ BitVec 64))
(declare-fun or.i_48_19 () (_ BitVec 64))
(declare-fun i.i_48_14 () (_ BitVec 64))
(declare-fun and.i_48_18 () (_ BitVec 64))
(declare-fun dst_reg_48_5 () (_ BitVec 64))
(declare-fun dst_reg_48_4 () (_ BitVec 64))
(declare-fun dst_reg_48_6 () (_ BitVec 64))
(declare-fun dst_reg_48_13 () (_ BitVec 8))
(declare-fun dst_reg_48_12 () (_ BitVec 32))
(declare-fun dst_reg_48_11 () (_ BitVec 32))
(declare-fun dst_reg_48_10 () (_ BitVec 32))
(declare-fun dst_reg_48_3 () (_ BitVec 32))
(declare-fun dst_reg_48_2 () (_ BitVec 32))
(declare-fun dst_reg_48_1 () (_ BitVec 32))
(declare-fun dst_reg_48_0 () (_ BitVec 32))
(declare-fun cond12.i_48_38 () (_ BitVec 64))
(declare-fun cond.i5_48_37 () (_ BitVec 64))
(declare-fun cond27.i_48_41 () (_ BitVec 64))
(declare-fun cmp16.i_48_40 () (_ BitVec 1))
(declare-fun dst_reg_48_76 () (_ BitVec 8))
(declare-fun dst_reg_48_75 () (_ BitVec 32))
(declare-fun dst_reg_48_74 () (_ BitVec 32))
(declare-fun dst_reg_48_73 () (_ BitVec 32))
(declare-fun dst_reg_48_72 () (_ BitVec 64))
(declare-fun dst_reg_48_71 () (_ BitVec 64))
(declare-fun dst_reg_48_70 () (_ BitVec 64))
(declare-fun dst_reg_48_69 () (_ BitVec 64))
(declare-fun dst_reg_48_68 () (_ BitVec 64))
(declare-fun dst_reg_48_67 () (_ BitVec 64))
(declare-fun dst_reg_48_66 () (_ BitVec 32))
(declare-fun dst_reg_48_65 () (_ BitVec 32))
(declare-fun dst_reg_48_64 () (_ BitVec 32))
(declare-fun dst_reg_48_63 () (_ BitVec 32))
(declare-fun cmp31.i_48_43 () (_ BitVec 1))
(declare-fun dst_reg_48_58 () (_ BitVec 8))
(declare-fun dst_reg_48_57 () (_ BitVec 32))
(declare-fun dst_reg_48_56 () (_ BitVec 32))
(declare-fun dst_reg_48_55 () (_ BitVec 32))
(declare-fun dst_reg_48_54 () (_ BitVec 64))
(declare-fun dst_reg_48_53 () (_ BitVec 64))
(declare-fun cond35.i.sink_48_62 () (_ BitVec 64))
(declare-fun dst_reg_48_51 () (_ BitVec 64))
(declare-fun dst_reg_48_50 () (_ BitVec 64))
(declare-fun dst_reg_48_49 () (_ BitVec 64))
(declare-fun dst_reg_48_48 () (_ BitVec 32))
(declare-fun dst_reg_48_47 () (_ BitVec 32))
(declare-fun dst_reg_48_46 () (_ BitVec 32))
(declare-fun dst_reg_48_45 () (_ BitVec 32))
(declare-fun cmp.i.i.i_48_81 () (_ BitVec 1))
(declare-fun xor.i.i_48_79 () (_ BitVec 64))
(declare-fun i.i8_48_77 () (_ BitVec 64))
(declare-fun i5.i_48_78 () (_ BitVec 64))
(declare-fun cond40.i_48_44 () (_ BitVec 64))
(declare-fun add.i.i.i_48_127 () (_ BitVec 32))
(declare-fun i_48_129 () (_ BitVec 32))
(declare-fun sub28.i.i.i.i_48_124 () (_ BitVec 32))
(declare-fun num.5.i.i.i.i_48_126 () (_ BitVec 32))
(declare-fun num.4.i.i.i.i_48_121 () (_ BitVec 32))
(declare-fun tobool26.not18.i.i.i.i_48_123 () (_ BitVec 1))
(declare-fun word.addr.4.i.i.i.i_48_120 () (_ BitVec 64))
(declare-fun num.3.i.i.i.i_48_113 () (_ BitVec 32))
(declare-fun sub22.i.i.i.i_48_117 () (_ BitVec 32))
(declare-fun tobool20.not.i.i.i.i_48_115 () (_ BitVec 1))
(declare-fun word.addr.3.i.i.i.i_48_112 () (_ BitVec 64))
(declare-fun shl23.i.i.i.i_48_119 () (_ BitVec 64))
(declare-fun num.2.i.i.i.i_48_105 () (_ BitVec 32))
(declare-fun sub16.i.i.i.i_48_109 () (_ BitVec 32))
(declare-fun tobool14.not.i.i.i.i_48_107 () (_ BitVec 1))
(declare-fun word.addr.2.i.i.i.i_48_104 () (_ BitVec 64))
(declare-fun shl17.i.i.i.i_48_111 () (_ BitVec 64))
(declare-fun num.1.i.i.i.i_48_97 () (_ BitVec 32))
(declare-fun sub10.i.i.i.i_48_101 () (_ BitVec 32))
(declare-fun tobool8.not.i.i.i.i_48_99 () (_ BitVec 1))
(declare-fun word.addr.1.i.i.i.i_48_96 () (_ BitVec 64))
(declare-fun shl11.i.i.i.i_48_103 () (_ BitVec 64))
(declare-fun spec.select17.i.i.i.i_48_89 () (_ BitVec 32))
(declare-fun sub4.i.i.i.i_48_93 () (_ BitVec 32))
(declare-fun tobool2.not.i.i.i.i_48_91 () (_ BitVec 1))
(declare-fun spec.select.i.i.i.i_48_86 () (_ BitVec 64))
(declare-fun shl5.i.i.i.i_48_95 () (_ BitVec 64))
(declare-fun tobool.not.i.i.i.i_48_83 () (_ BitVec 1))
(declare-fun shl.i.i.i.i_48_85 () (_ BitVec 64))
(declare-fun if.then.i___reg_deduce_bounds.exit.sink.split_48_61 () Bool)
(declare-fun if.then17.i___reg_deduce_bounds.exit.sink.split_48_60 () Bool)
(declare-fun if.then32.i___reg_deduce_bounds.exit.sink.split_48_59 () Bool)
(declare-fun dst_reg_48_52 () (_ BitVec 64))
(declare-fun dst_reg_48_164 () (_ BitVec 8))
(declare-fun dst_reg_48_163 () (_ BitVec 32))
(declare-fun dst_reg_48_162 () (_ BitVec 32))
(declare-fun dst_reg_48_161 () (_ BitVec 32))
(declare-fun dst_reg_48_160 () (_ BitVec 64))
(declare-fun dst_reg_48_159 () (_ BitVec 64))
(declare-fun dst_reg_48_158 () (_ BitVec 64))
(declare-fun dst_reg_48_157 () (_ BitVec 64))
(declare-fun dst_reg_48_156 () (_ BitVec 64))
(declare-fun and.i1.i_48_147 () (_ BitVec 64))
(declare-fun dst_reg_48_155 () (_ BitVec 64))
(declare-fun and4.i.i_48_150 () (_ BitVec 64))
(declare-fun dst_reg_48_154 () (_ BitVec 32))
(declare-fun dst_reg_48_153 () (_ BitVec 32))
(declare-fun dst_reg_48_152 () (_ BitVec 32))
(declare-fun dst_reg_48_151 () (_ BitVec 32))
(declare-fun __reg_deduce_bounds.exit___reg_bound_offset.exit_48_131 () Bool)
(declare-fun if.end.i.i.i___reg_bound_offset.exit_48_130 () Bool)
(declare-fun not.i.i_48_149 () (_ BitVec 64))
(declare-fun or.i.i_48_146 () (_ BitVec 64))
(declare-fun retval.sroa.3.0.i.i_48_145 () (_ BitVec 64))
(declare-fun retval.sroa.0.0.i.i_48_143 () (_ BitVec 64))
(declare-fun sub.i.i_48_140 () (_ BitVec 64))
(declare-fun cmp.i.i_48_135 () (_ BitVec 1))
(declare-fun and.i.i_48_141 () (_ BitVec 64))
(declare-fun notmask.i.i_48_138 () (_ BitVec 64))
(declare-fun sh_prom.i.i_48_136 () (_ BitVec 64))
(declare-fun retval.0.i.i.i_48_132 () (_ BitVec 32))
(assert (let ((a!1 (and (= cmp31.i_48_43 #b1)
                (and (= cmp16.i_48_40 #b0) (= or.cond_48_36 #b0))))
      (a!3 (and (= cmp31.i_48_43 #b0)
                (and (= cmp16.i_48_40 #b0) (= or.cond_48_36 #b0))))
      (a!7 (=> (and (= cmp16.i_48_40 #b0) (= or.cond_48_36 #b0))
               (and (ite (bvslt cond23.i_48_27 #x0000000000000000)
                         (= cmp31.i_48_43 #b1)
                         (= cmp31.i_48_43 #b0)))))
      (a!9 (and (= cond40.i_48_44
                   (ite (bvuge cond.i_48_20 cond23.i_48_27)
                        cond.i_48_20
                        cond23.i_48_27))))
      (a!10 (=> (= or.cond_48_36 #b0)
                (and (ite (bvsgt cond35.i_48_30 #xffffffffffffffff)
                          (= cmp16.i_48_40 #b1)
                          (= cmp16.i_48_40 #b0)))))
      (a!12 (and (= cond27.i_48_41
                    (ite (bvule cond14.i_48_25 cond35.i_48_30)
                         cond14.i_48_25
                         cond35.i_48_30))))
      (a!13 (and (= cond.i5_48_37
                    (ite (bvuge cond.i_48_20 cond23.i_48_27)
                         cond.i_48_20
                         cond23.i_48_27))
                 (= cond12.i_48_38
                    (ite (bvule cond14.i_48_25 cond35.i_48_30)
                         cond14.i_48_25
                         cond35.i_48_30)))))
(let ((a!2 (or a!1
               (and (= cmp16.i_48_40 #b1) (= or.cond_48_36 #b0))
               (= or.cond_48_36 #b1)))
      (a!6 (and (=> if.then32.i___reg_deduce_bounds.exit.sink.split_48_59
                    (= cond35.i.sink_48_62 cond35.i_48_30))
                (=> if.then17.i___reg_deduce_bounds.exit.sink.split_48_60
                    (= cond35.i.sink_48_62 cond27.i_48_41))
                (=> if.then.i___reg_deduce_bounds.exit.sink.split_48_61
                    (= cond35.i.sink_48_62 cond12.i_48_38))
                (=> (= or.cond_48_36 #b1)
                    (and (= dst_reg_48_0 dst_reg_48_45)
                         (= dst_reg_48_1 dst_reg_48_46)
                         (= dst_reg_48_2 dst_reg_48_47)
                         (= dst_reg_48_3 dst_reg_48_48)
                         (= dst_reg_48_4 dst_reg_48_49)
                         (= dst_reg_48_5 dst_reg_48_50)
                         (= cond.i5_48_37 dst_reg_48_51)
                         (= cond14.i_48_25 dst_reg_48_52)
                         (= cond.i5_48_37 dst_reg_48_53)
                         (= cond12.i_48_38 dst_reg_48_54)
                         (= dst_reg_48_10 dst_reg_48_55)
                         (= dst_reg_48_11 dst_reg_48_56)
                         (= dst_reg_48_12 dst_reg_48_57)
                         (= dst_reg_48_13 dst_reg_48_58)))
                (=> (and (= cmp16.i_48_40 #b1) (= or.cond_48_36 #b0))
                    (and (= dst_reg_48_0 dst_reg_48_45)
                         (= dst_reg_48_1 dst_reg_48_46)
                         (= dst_reg_48_2 dst_reg_48_47)
                         (= dst_reg_48_3 dst_reg_48_48)
                         (= dst_reg_48_4 dst_reg_48_49)
                         (= dst_reg_48_5 dst_reg_48_50)
                         (= cond23.i_48_27 dst_reg_48_51)
                         (= cond14.i_48_25 dst_reg_48_52)
                         (= cond23.i_48_27 dst_reg_48_53)
                         (= cond27.i_48_41 dst_reg_48_54)
                         (= dst_reg_48_10 dst_reg_48_55)
                         (= dst_reg_48_11 dst_reg_48_56)
                         (= dst_reg_48_12 dst_reg_48_57)
                         (= dst_reg_48_13 dst_reg_48_58)))
                (=> a!1
                    (and (= dst_reg_48_0 dst_reg_48_45)
                         (= dst_reg_48_1 dst_reg_48_46)
                         (= dst_reg_48_2 dst_reg_48_47)
                         (= dst_reg_48_3 dst_reg_48_48)
                         (= dst_reg_48_4 dst_reg_48_49)
                         (= dst_reg_48_5 dst_reg_48_50)
                         (= cond40.i_48_44 dst_reg_48_51)
                         (= cond14.i_48_25 dst_reg_48_52)
                         (= cond40.i_48_44 dst_reg_48_53)
                         (= cond35.i_48_30 dst_reg_48_54)
                         (= dst_reg_48_10 dst_reg_48_55)
                         (= dst_reg_48_11 dst_reg_48_56)
                         (= dst_reg_48_12 dst_reg_48_57)
                         (= dst_reg_48_13 dst_reg_48_58)))
                (= if.then32.i___reg_deduce_bounds.exit.sink.split_48_59 a!1)
                (= if.then17.i___reg_deduce_bounds.exit.sink.split_48_60
                   (and (= cmp16.i_48_40 #b1) (= or.cond_48_36 #b0)))
                (= if.then.i___reg_deduce_bounds.exit.sink.split_48_61
                   (= or.cond_48_36 #b1)))))
(let ((a!4 (and (=> if.end.i.i.i___reg_bound_offset.exit_48_130
                    (= retval.0.i.i.i_48_132 i_48_129))
                (=> __reg_deduce_bounds.exit___reg_bound_offset.exit_48_131
                    (= retval.0.i.i.i_48_132 #x00000000))
                (ite (bvugt retval.0.i.i.i_48_132 #x0000003f)
                     (= cmp.i.i_48_135 #b1)
                     (= cmp.i.i_48_135 #b0))
                (= sh_prom.i.i_48_136
                   ((_ zero_extend 32) retval.0.i.i.i_48_132))
                (= notmask.i.i_48_138
                   (bvshl #xffffffffffffffff sh_prom.i.i_48_136))
                (= sub.i.i_48_140 (bvxor notmask.i.i_48_138 #xffffffffffffffff))
                (= and.i.i_48_141 (bvand notmask.i.i_48_138 i.i8_48_77))
                (ite (= cmp.i.i_48_135 #b1)
                     (= retval.sroa.0.0.i.i_48_143 #x0000000000000000)
                     (= retval.sroa.0.0.i.i_48_143 and.i.i_48_141))
                (ite (= cmp.i.i_48_135 #b1)
                     (= retval.sroa.3.0.i.i_48_145 #xffffffffffffffff)
                     (= retval.sroa.3.0.i.i_48_145 sub.i.i_48_140))
                (= or.i.i_48_146 (bvor retval.sroa.0.0.i.i_48_143 i23.i_48_15))
                (= and.i1.i_48_147
                   (bvand retval.sroa.3.0.i.i_48_145 i24.i_48_16))
                (= not.i.i_48_149 (bvxor and.i1.i_48_147 #xffffffffffffffff))
                (= and4.i.i_48_150 (bvand or.i.i_48_146 not.i.i_48_149))
                (= if.end.i.i.i___reg_bound_offset.exit_48_130
                   (and (= cmp.i.i.i_48_81 #b0) (or a!2 a!3)))
                (= __reg_deduce_bounds.exit___reg_bound_offset.exit_48_131
                   (and (= cmp.i.i.i_48_81 #b1) (or a!2 a!3)))
                (= dst_reg_48_63 dst_reg_48_151)
                (= dst_reg_48_64 dst_reg_48_152)
                (= dst_reg_48_65 dst_reg_48_153)
                (= dst_reg_48_66 dst_reg_48_154)
                (= and4.i.i_48_150 dst_reg_48_155)
                (= and.i1.i_48_147 dst_reg_48_156)
                (= dst_reg_48_69 dst_reg_48_157)
                (= dst_reg_48_70 dst_reg_48_158)
                (= dst_reg_48_71 dst_reg_48_159)
                (= dst_reg_48_72 dst_reg_48_160)
                (= dst_reg_48_73 dst_reg_48_161)
                (= dst_reg_48_74 dst_reg_48_162)
                (= dst_reg_48_75 dst_reg_48_163)
                (= dst_reg_48_76 dst_reg_48_164)))
      (a!8 (=> (and (= cmp.i.i.i_48_81 #b0) (or a!2 a!3))
               (and (ite (bvult xor.i.i_48_79 #x0000000100000000)
                         (= tobool.not.i.i.i.i_48_83 #b1)
                         (= tobool.not.i.i.i.i_48_83 #b0))
                    (= shl.i.i.i.i_48_85
                       (bvshl xor.i.i_48_79 #x0000000000000020))
                    (ite (= tobool.not.i.i.i.i_48_83 #b1)
                         (= spec.select.i.i.i.i_48_86 shl.i.i.i.i_48_85)
                         (= spec.select.i.i.i.i_48_86 xor.i.i_48_79))
                    (ite (= tobool.not.i.i.i.i_48_83 #b1)
                         (= spec.select17.i.i.i.i_48_89 #x0000001f)
                         (= spec.select17.i.i.i.i_48_89 #x0000003f))
                    (ite (bvult spec.select.i.i.i.i_48_86 #x0001000000000000)
                         (= tobool2.not.i.i.i.i_48_91 #b1)
                         (= tobool2.not.i.i.i.i_48_91 #b0))
                    (= sub4.i.i.i.i_48_93
                       (bvadd spec.select17.i.i.i.i_48_89 #xfffffff0))
                    (= shl5.i.i.i.i_48_95
                       (bvshl spec.select.i.i.i.i_48_86 #x0000000000000010))
                    (ite (= tobool2.not.i.i.i.i_48_91 #b1)
                         (= word.addr.1.i.i.i.i_48_96 shl5.i.i.i.i_48_95)
                         (= word.addr.1.i.i.i.i_48_96 spec.select.i.i.i.i_48_86))
                    (ite (= tobool2.not.i.i.i.i_48_91 #b1)
                         (= num.1.i.i.i.i_48_97 sub4.i.i.i.i_48_93)
                         (= num.1.i.i.i.i_48_97 spec.select17.i.i.i.i_48_89))
                    (ite (bvult word.addr.1.i.i.i.i_48_96 #x0100000000000000)
                         (= tobool8.not.i.i.i.i_48_99 #b1)
                         (= tobool8.not.i.i.i.i_48_99 #b0))
                    (= sub10.i.i.i.i_48_101
                       (bvadd num.1.i.i.i.i_48_97 #xfffffff8))
                    (= shl11.i.i.i.i_48_103
                       (bvshl word.addr.1.i.i.i.i_48_96 #x0000000000000008))
                    (ite (= tobool8.not.i.i.i.i_48_99 #b1)
                         (= word.addr.2.i.i.i.i_48_104 shl11.i.i.i.i_48_103)
                         (= word.addr.2.i.i.i.i_48_104
                            word.addr.1.i.i.i.i_48_96))
                    (ite (= tobool8.not.i.i.i.i_48_99 #b1)
                         (= num.2.i.i.i.i_48_105 sub10.i.i.i.i_48_101)
                         (= num.2.i.i.i.i_48_105 num.1.i.i.i.i_48_97))
                    (ite (bvult word.addr.2.i.i.i.i_48_104 #x1000000000000000)
                         (= tobool14.not.i.i.i.i_48_107 #b1)
                         (= tobool14.not.i.i.i.i_48_107 #b0))
                    (= sub16.i.i.i.i_48_109
                       (bvadd num.2.i.i.i.i_48_105 #xfffffffc))
                    (= shl17.i.i.i.i_48_111
                       (bvshl word.addr.2.i.i.i.i_48_104 #x0000000000000004))
                    (ite (= tobool14.not.i.i.i.i_48_107 #b1)
                         (= word.addr.3.i.i.i.i_48_112 shl17.i.i.i.i_48_111)
                         (= word.addr.3.i.i.i.i_48_112
                            word.addr.2.i.i.i.i_48_104))
                    (ite (= tobool14.not.i.i.i.i_48_107 #b1)
                         (= num.3.i.i.i.i_48_113 sub16.i.i.i.i_48_109)
                         (= num.3.i.i.i.i_48_113 num.2.i.i.i.i_48_105))
                    (ite (bvult word.addr.3.i.i.i.i_48_112 #x4000000000000000)
                         (= tobool20.not.i.i.i.i_48_115 #b1)
                         (= tobool20.not.i.i.i.i_48_115 #b0))
                    (= sub22.i.i.i.i_48_117
                       (bvadd num.3.i.i.i.i_48_113 #x000000fe))
                    (= shl23.i.i.i.i_48_119
                       (bvshl word.addr.3.i.i.i.i_48_112 #x0000000000000002))
                    (ite (= tobool20.not.i.i.i.i_48_115 #b1)
                         (= word.addr.4.i.i.i.i_48_120 shl23.i.i.i.i_48_119)
                         (= word.addr.4.i.i.i.i_48_120
                            word.addr.3.i.i.i.i_48_112))
                    (ite (= tobool20.not.i.i.i.i_48_115 #b1)
                         (= num.4.i.i.i.i_48_121 sub22.i.i.i.i_48_117)
                         (= num.4.i.i.i.i_48_121 num.3.i.i.i.i_48_113))
                    (ite (bvsgt word.addr.4.i.i.i.i_48_120 #xffffffffffffffff)
                         (= tobool26.not18.i.i.i.i_48_123 #b1)
                         (= tobool26.not18.i.i.i.i_48_123 #b0))
                    (= sub28.i.i.i.i_48_124
                       ((_ sign_extend 31) tobool26.not18.i.i.i.i_48_123))
                    (= num.5.i.i.i.i_48_126
                       (bvadd num.4.i.i.i.i_48_121 #x00000001))
                    (= add.i.i.i_48_127
                       (bvadd num.5.i.i.i.i_48_126 sub28.i.i.i.i_48_124))
                    (= i_48_129 (bvand add.i.i.i_48_127 #x000000ff)))))
      (a!11 (and (= dst_reg_48_71 i.i8_48_77)
                 (= dst_reg_48_72 i5.i_48_78)
                 (= xor.i.i_48_79 (bvxor i5.i_48_78 i.i8_48_77))
                 (ite (= xor.i.i_48_79 #x0000000000000000)
                      (= cmp.i.i.i_48_81 #b1)
                      (= cmp.i.i.i_48_81 #b0))
                 (=> a!2
                     (and (= dst_reg_48_45 dst_reg_48_63)
                          (= dst_reg_48_46 dst_reg_48_64)
                          (= dst_reg_48_47 dst_reg_48_65)
                          (= dst_reg_48_48 dst_reg_48_66)
                          (= dst_reg_48_49 dst_reg_48_67)
                          (= dst_reg_48_50 dst_reg_48_68)
                          (= dst_reg_48_51 dst_reg_48_69)
                          (= cond35.i.sink_48_62 dst_reg_48_70)
                          (= dst_reg_48_53 dst_reg_48_71)
                          (= dst_reg_48_54 dst_reg_48_72)
                          (= dst_reg_48_55 dst_reg_48_73)
                          (= dst_reg_48_56 dst_reg_48_74)
                          (= dst_reg_48_57 dst_reg_48_75)
                          (= dst_reg_48_58 dst_reg_48_76)))
                 (=> a!3
                     (and (= dst_reg_48_0 dst_reg_48_63)
                          (= dst_reg_48_1 dst_reg_48_64)
                          (= dst_reg_48_2 dst_reg_48_65)
                          (= dst_reg_48_3 dst_reg_48_66)
                          (= dst_reg_48_4 dst_reg_48_67)
                          (= dst_reg_48_5 dst_reg_48_68)
                          (= cond.i_48_20 dst_reg_48_69)
                          (= cond14.i_48_25 dst_reg_48_70)
                          (= cond23.i_48_27 dst_reg_48_71)
                          (= cond35.i_48_30 dst_reg_48_72)
                          (= dst_reg_48_10 dst_reg_48_73)
                          (= dst_reg_48_11 dst_reg_48_74)
                          (= dst_reg_48_12 dst_reg_48_75)
                          (= dst_reg_48_13 dst_reg_48_76))))))
(let ((a!5 (=> (or (and (= cmp.i.i.i_48_81 #b0) (or a!2 a!3))
                   (and (= cmp.i.i.i_48_81 #b1) (or a!2 a!3)))
               a!4)))
  (and a!5
       (=> a!2 a!6)
       a!7
       a!8
       (=> a!1 a!9)
       a!10
       (=> (or a!2 a!3) a!11)
       (=> (and (= cmp16.i_48_40 #b1) (= or.cond_48_36 #b0)) a!12)
       (=> (= or.cond_48_36 #b1) a!13)
       (= dst_reg_48_0 dst_reg_48_0)
       (= dst_reg_48_1 dst_reg_48_1)
       (= dst_reg_48_2 dst_reg_48_2)
       (= dst_reg_48_3 dst_reg_48_3)
       (= dst_reg_48_4 dst_reg_48_4)
       (= dst_reg_48_5 dst_reg_48_5)
       (= dst_reg_48_6 dst_reg_48_6)
       (= dst_reg_48_7 dst_reg_48_7)
       (= dst_reg_48_8 dst_reg_48_8)
       (= dst_reg_48_9 dst_reg_48_9)
       (= dst_reg_48_10 dst_reg_48_10)
       (= dst_reg_48_11 dst_reg_48_11)
       (= dst_reg_48_12 dst_reg_48_12)
       (= dst_reg_48_13 dst_reg_48_13)
       (= dst_reg_48_6 i.i_48_14)
       (= dst_reg_48_4 i23.i_48_15)
       (= dst_reg_48_5 i24.i_48_16)
       (= and.i_48_18 (bvand i24.i_48_16 #x8000000000000000))
       (= or.i_48_19 (bvor and.i_48_18 i23.i_48_15))
       (= cond.i_48_20 (ite (bvsge i.i_48_14 or.i_48_19) i.i_48_14 or.i_48_19))
       (= dst_reg_48_7 i25.i_48_21)
       (= and7.i_48_23 (bvand i24.i_48_16 #x7fffffffffffffff))
       (= or8.i_48_24 (bvor and7.i_48_23 i23.i_48_15))
       (= cond14.i_48_25
          (ite (bvsle i25.i_48_21 or8.i_48_24) i25.i_48_21 or8.i_48_24))
       (= dst_reg_48_8 i26.i_48_26)
       (= cond23.i_48_27
          (ite (bvuge i26.i_48_26 i23.i_48_15) i26.i_48_26 i23.i_48_15))
       (= dst_reg_48_9 i27.i_48_28)
       (= or29.i_48_29 (bvor i24.i_48_16 i23.i_48_15))
       (= cond35.i_48_30
          (ite (bvule i27.i_48_28 or29.i_48_29) i27.i_48_28 or29.i_48_29))
       (ite (bvsgt cond.i_48_20 #xffffffffffffffff)
            (= cmp.i_48_32 #b1)
            (= cmp.i_48_32 #b0))
       (ite (bvslt cond14.i_48_25 #x0000000000000000)
            (= cmp1.i_48_34 #b1)
            (= cmp1.i_48_34 #b0))
       (ite (= cmp.i_48_32 #b1)
            (= or.cond_48_36 #b1)
            (= or.cond_48_36 cmp1.i_48_34))))))))

;{"dst_reg":["dst_reg_48_0",[""],"dst_reg_48_1","dst_reg_48_2","dst_reg_48_3",["dst_reg_48_4","dst_reg_48_5"],"dst_reg_48_6","dst_reg_48_7","dst_reg_48_8","dst_reg_48_9","","","dst_reg_48_10","dst_reg_48_11","dst_reg_48_12"]}
;{"dst_reg":["dst_reg_48_151",[""],"dst_reg_48_152","dst_reg_48_153","dst_reg_48_154",["dst_reg_48_155","dst_reg_48_156"],"dst_reg_48_157","dst_reg_48_158","dst_reg_48_159","dst_reg_48_160","","","dst_reg_48_161","dst_reg_48_162","dst_reg_48_163"]}
